* (set-logic QF_BV)
* (set-info :smt-lib-version 2.6)
* (set-info :category "crafted")
* (set-info :status unsat)
* (declare-fun v0 () (_ BitVec 16))
* (declare-fun v1 () (_ BitVec 16))
* (declare-fun v2 () (_ BitVec 16))
* (declare-fun v3 () (_ BitVec 16))
* (declare-fun v4 () (_ BitVec 16))
* (declare-fun v5 () (_ BitVec 16))
* (assert (and
* 	 (bvule v0 v1)
* 	 (bvule v1 v2)
* 	 (bvule v2 v0)
* 	 (bvult (_ bv4 16) v0)
* 	 (bvult v2 (_ bv5 16))
* 	 ))
* (check-sat)
* (exit)
* unsat
* #variable= 80 #constraint= 37
+1 x1 +2 x2 +4 x3 +8 x4 +16 x5 +32 x6 +64 x7 +128 x8 +256 x9 +512 x10 +1024 x11 +2048 x12 +4096 x13 +8192 x14 +16384 x15 +32768 x16 -1 x17 -2 x18 -4 x19 -8 x20 -16 x21 -32 x22 -64 x23 -128 x24 -256 x25 -512 x26 -1024 x27 -2048 x28 -4096 x29 -8192 x30 -16384 x31 -32768 x32 >= 0;
+1 x33 +2 x34 +4 x35 +8 x36 +16 x37 +32 x38 +64 x39 +128 x40 +256 x41 +512 x42 +1024 x43 +2048 x44 +4096 x45 +8192 x46 +16384 x47 +32768 x48 -1 x1 -2 x2 -4 x3 -8 x4 -16 x5 -32 x6 -64 x7 -128 x8 -256 x9 -512 x10 -1024 x11 -2048 x12 -4096 x13 -8192 x14 -16384 x15 -32768 x16 >= 0;
+1 x17 +2 x18 +4 x19 +8 x20 +16 x21 +32 x22 +64 x23 +128 x24 +256 x25 +512 x26 +1024 x27 +2048 x28 +4096 x29 +8192 x30 +16384 x31 +32768 x32 -1 x33 -2 x34 -4 x35 -8 x36 -16 x37 -32 x38 -64 x39 -128 x40 -256 x41 -512 x42 -1024 x43 -2048 x44 -4096 x45 -8192 x46 -16384 x47 -32768 x48 >= 0;
+1 x64 = 0;
+1 x63 = 0;
+1 x62 = 0;
+1 x61 = 0;
+1 x17 +2 x18 +4 x19 +8 x20 +16 x21 +32 x22 +64 x23 +128 x24 +256 x25 +512 x26 +1024 x27 +2048 x28 +4096 x29 +8192 x30 +16384 x31 +32768 x32 -1 x49 -2 x50 -4 x51 -8 x52 -16 x53 -32 x54 -64 x55 -128 x56 -256 x57 -512 x58 -1024 x59 -2048 x60 -4096 x61 -8192 x62 -16384 x63 -32768 x64 >= 1;
+1 x49 = 0;
+1 x50 = 0;
+1 x51 = 1;
+1 x52 = 0;
+1 x53 = 0;
+1 x54 = 0;
+1 x55 = 0;
+1 x56 = 0;
+1 x57 = 0;
+1 x58 = 0;
+1 x59 = 0;
+1 x60 = 0;
+1 x80 = 0;
+1 x79 = 0;
+1 x78 = 0;
+1 x77 = 0;
+1 x70 = 0;
+1 x65 = 1;
+1 x66 = 0;
+1 x67 = 1;
+1 x68 = 0;
+1 x69 = 0;
+1 x71 = 0;
+1 x72 = 0;
+1 x73 = 0;
+1 x74 = 0;
+1 x65 +2 x66 +4 x67 +8 x68 +16 x69 +32 x70 +64 x71 +128 x72 +256 x73 +512 x74 +1024 x75 +2048 x76 +4096 x77 +8192 x78 +16384 x79 +32768 x80 -1 x33 -2 x34 -4 x35 -8 x36 -16 x37 -32 x38 -64 x39 -128 x40 -256 x41 -512 x42 -1024 x43 -2048 x44 -4096 x45 -8192 x46 -16384 x47 -32768 x48 >= 1;
+1 x75 = 0;
+1 x76 = 0;
